93 92 91 555 45 46 47 48 49 50 51 52 54 53 55 56 83 84 85 86 87 90 89 88 78 62 79 80 81 82 57 58 59 60 61 63 64 76 77 75 74 73 119 118 120 121 122 123 71 72 65 66 67 68 70 69 138 137 129 130 131 132 133 134 135 136 139 140 141 151 150 149 152 148 147 142 143 144 145 146 153 157 158 159 156 155 154 160 162 161 113 112 114 115 116 128 127 126 125 124 117 106 105 104 103 547 546 545 544 543 541 542 107 110 111 109 108 173 174 175 172 170 171 169 168 163 167 166 164 165 203 204 202 201 200 199 198 205 206 207 208 209 194 195 196 197 184 185 183 181 180 179 182 186 188 187 178 177 176 540 538 539 537 536 484 485 483 481 482 475 476 480 479 477 478 548 549 551 550 559 558 560 561 562 563 564 565 566 567 473 474 570 569 568 20 19 18 17 8 572 573 571 468 469 467 466 465 464 463 462 461 460 459 458 457 456 455 454 439 442 449 448 447 446 443 444 445 381 380 379 378 377 376 375 374 315 314 316 313 309 310 311 312 451 450 441 440 453 452 499 500 501 498 497 496 470 471 472 494 495 518 519 520 521 523 525 524 493 492 491 490 529 528 511 510 509 513 512 527 526 522 514 515 516 517 502 503 504 505 308 506 507 508 302 301 303 307 304 306 305 318 317 319 320 321 297 298 299 300 241 242 244 243 240 239 238 237 236 235 234 232 233 530 531 489 486 487 535 534 488 533 532 231 230 229 228 227 189 225 226 190 191 192 193 219 218 220 221 222 224 223 210 211 212 213 214 215 217 216 246 247 245 248 249 250 251 252 254 253 255 256 257 260 261 259 258 262 263 264 265 266 267 271 272 269 268 270 296 295 294 293 291 292 273 274 275 276 277 290 289 288 278 279 282 281 280 287 286 285 284 283 334 335 336 337 338 339 333 332 331 330 340 341 344 343 342 366 329 328 327 326 325 324 323 322 373 372 371 396 395 394 393 391 392 390 389 388 397 398 370 369 368 367 365 364 345 346 362 363 361 360 359 358 348 347 349 350 351 415 416 414 413 352 353 354 355 357 401 402 403 400 399 404 405 406 407 408 409 385 387 386 383 384 356 412 411 410 418 417 419 420 421 422 423 424 425 382 426 427 428 429 431 430 432 433 434 435 436 438 437 3 2 1 4 0 5 6 7 9 10 11 16 15 14 13 12 23 21 24 25 26 27 28 29 22 31 30 32 33 34 35 36 37 38 39 42 43 44 41 40 557 556 554 553 552 101 102 100 99 98 96 95 97 94